unsat
((set-logic NIA)
(declare-fun s!1 () Int)
(declare-fun r!2 () Int)
(declare-fun x!0 () Int)
(proof
(let ((?x733 (* (- 1) s!1)))
 (let ((?x521 (* r!2 r!2)))
 (let ((?x739 (* 3 ?x521)))
 (let ((?x252 (* r00 r00)))
 (let ((?x266 (* (- 3) ?x252)))
 (let ((?x1522 (+ s00 ?x266 ?x739 ?x733)))
 (let (($x1478 (<= ?x1522 0)))
 (let (($x1526 (= ?x1522 0)))
 (let ((?x1553 (* s!1 x!0)))
 (let ((?x644 (* (- 2) ?x1553)))
 (let ((?x1439 (* s!1 s!1)))
 (let ((?x1354 (* 3 (* r!2 r!2 x!0 x!0))))
 (let ((?x1203 (* x!0 x!0)))
 (let ((?x953 (* r!2 r!2 r!2 x!0 x!0)))
 (let ((?x720 (* 3 (* r!2 x!0 x!0))))
 (let ((?x1595 (* 3 r!2)))
 (let ((?x888 (+ 2 ?x521 ?x1595 (* 3 (* s!1 s!1 r!2)) (* (- 6) (* s!1 r!2 x!0)) (* (- 6) (* s!1 r!2 r!2 x!0)) ?x720 (* s!1 s!1 r!2 r!2 r!2) (* 3 (* s!1 s!1 r!2 r!2)) (* (- 2) (* s!1 r!2 r!2 r!2 x!0)) ?x953 ?x1203 ?x1354 ?x1439 ?x644)))
 (let ((?x561 (* ?x888 ?x1522)))
 (let (($x562 (= ?x561 0)))
 (let (($x1361 (not $x562)))
 (let ((?x1297 (* x00 x00)))
 (let ((?x1071 (* 108 ?x1297)))
 (let ((?x1135 (* s00 s00 s00)))
 (let ((?x1096 (* 16 ?x1135)))
 (let ((?x1009 (* r00 r00 s!1)))
 (let ((?x669 (* 36 ?x1009)))
 (let ((?x833 (* r00 r00 r00 x00)))
 (let ((?x665 (* (- 432) ?x833)))
 (let ((?x756 (* s00 x00)))
 (let ((?x587 (* (- 108) ?x756)))
 (let ((?x598 (* s00 r00 r00)))
 (let ((?x633 (* (- 36) ?x598)))
 (let ((?x1121 (* (- 9) s!1)))
 (let ((?x542 (* s00 s00)))
 (let ((?x482 (* 51 ?x542)))
 (let ((?x473 (* r00 x00)))
 (let ((?x330 (* 108 ?x473)))
 (let ((?x137 (* 9 s00)))
 (let ((?x626 (+ ?x137 (* (- 54) (* s00 r00)) (* 216 (* s00 r00 x00)) ?x330 ?x482 ?x1121 ?x633 (* (- 108) (* s00 s00 r00)) (* (- 36) (* s00 s00 r00 r00)) (* (- 12) (* s00 s!1 s!1)) (* 432 (* r00 r00 r00 x!0)) ?x587 (* 108 (* s00 x!0)) ?x665 (* 54 (* r00 s!1)) (* 36 (* r00 r00 s!1 s!1)) (* 216 (* s00 r00 r00 r00)) ?x669 (* (- 4) (* s!1 s!1 s!1)) (* (- 108) (* r00 x!0)) ?x1096 (* 108 ?x1203) (* 108 (* s00 r00 s!1)) ?x1071 (* (- 216) (* s00 r00 x!0)) (* (- 216) (* x00 x!0)) (* 15 ?x1439) (* 108 (* x00 s!1)) (* (- 216) (* r00 r00 r00 s!1)) (* (- 108) ?x1553) (* (- 66) (* s00 s!1)))))
 (let ((?x828 (* r00 r00 x00)))
 (let ((?x1284 (* 36 ?x828)))
 (let ((?x617 (* (- 6) ?x756)))
 (let ((?x1514 (* 15 ?x542)))
 (let ((?x910 (* 54 ?x473)))
 (let ((?x484 (+ ?x137 (* (- 2) (* s00 s!1 r!2)) (* (- 36) (* r00 r00 x!0)) (* (- 24) (* s00 r00)) ?x910 ?x1514 ?x1121 ?x633 (* 2 (* s00 s00 r00)) (* (- 2) (* s!1 s!1 r!2)) ?x617 (* (- 36) (* r00 r!2 x!0)) (* 6 (* s00 x!0)) (* (- 24) (* s00 r!2)) ?x1284 (* 36 (* r00 x00 r!2)) (* 24 (* r00 s!1)) ?x669 (* (- 54) (* r00 x!0)) (* 54 (* x00 r!2)) (* (- 4) (* r00 s!1 s!1)) (* 2 (* s00 r00 s!1)) (* (- 3) ?x1439) (* (- 54) (* r!2 x!0)) (* 24 (* s!1 r!2)) (* 6 (* x00 s!1)) (* (- 6) ?x1553) (* (- 12) (* s00 s!1)) (* 4 (* s00 s00 r!2)))))
 (let ((?x481 (* (- 3) s!1)))
 (let ((?x906 (* 4 ?x542)))
 (let ((?x993 (* 18 ?x473)))
 (let ((?x44 (* 3 s00)))
 (let ((?x920 (+ ?x44 (* (- 9) (* s00 r00)) ?x993 ?x906 ?x481 (* (- 6) ?x598) (* (- 9) (* s00 r!2)) (* 9 (* r00 s!1)) (* 6 (* s00 r00 r!2)) (* (- 6) (* r00 s!1 r!2)) (* 6 ?x1009) (* (- 18) (* r00 x!0)) (* 18 (* x00 r!2)) (* (- 2) ?x1439) (* (- 18) (* r!2 x!0)) (* 9 (* s!1 r!2)) (* (- 2) (* s00 s!1)))))
 (let ((?x1497 (* 6 x!0)))
 (let ((?x420 (* r00 r00 r00)))
 (let ((?x421 (* 12 ?x420)))
 (let ((?x377 (* s00 r00)))
 (let ((?x455 (* (- 6) ?x377)))
 (let ((?x452 (* (- 6) x00)))
 (let ((?x451 (* (- 3) r00)))
 (let ((?x978 (+ ?x44 ?x451 ?x452 ?x455 ?x421 ?x481 ?x1595 (* (- 12) (* r00 r00 r!2)) (* 4 (* s00 r!2)) ?x1497 (* 2 (* s!1 r!2)))))
 (let (($x1350 (and $x1526 (= ?x978 0) (= ?x920 0) (= ?x484 0) (= ?x626 0) $x1361)))
 (let ((?x632 (+ 2 ?x1595 ?x521 ?x1439 (* 3 (* r!2 s!1 s!1)) ?x644 ?x1203 ?x720 ?x1354 ?x953 (* 3 (* r!2 r!2 s!1 s!1)) (* r!2 r!2 r!2 s!1 s!1) (* (- 6) (* r!2 s!1 x!0)) (* (- 6) (* r!2 r!2 s!1 x!0)) (* (- 2) (* r!2 r!2 r!2 s!1 x!0)))))
 (let ((?x1327 (* (- 108) ?x1297)))
 (let ((?x1326 (* (- 16) ?x1135)))
 (let ((?x1007 (* s00 r00 r00 r00)))
 (let ((?x1322 (* (- 216) ?x1007)))
 (let ((?x834 (* 432 ?x833)))
 (let ((?x1080 (* 108 ?x756)))
 (let ((?x682 (* s00 s00 r00 r00)))
 (let ((?x683 (* 36 ?x682)))
 (let ((?x619 (* s00 s00 r00)))
 (let ((?x963 (* 108 ?x619)))
 (let ((?x951 (* 36 ?x598)))
 (let ((?x1316 (* (- 51) ?x542)))
 (let ((?x367 (* s!1 r00 r00)))
 (let ((?x513 (* (- 36) ?x367)))
 (let ((?x1313 (* (- 108) ?x473)))
 (let ((?x464 (* s00 r00 x00)))
 (let ((?x1312 (* (- 216) ?x464)))
 (let ((?x471 (* 54 ?x377)))
 (let ((?x938 (* (- 9) s00)))
 (let ((?x1561 (* 9 s!1)))
 (let ((?x1355 (+ ?x1561 ?x938 ?x471 ?x1312 ?x1313 (* (- 15) ?x1439) ?x513 ?x1316 (* (- 108) (* x!0 s00)) (* 108 (* x!0 r00)) (* 216 (* s!1 r00 r00 r00)) ?x951 ?x963 (* 66 (* s!1 s00)) (* (- 54) (* s!1 r00)) (* (- 108) (* s!1 x00)) ?x683 (* (- 108) (* s!1 s00 r00)) (* 4 (* s!1 s!1 s!1)) ?x1080 (* 108 ?x1553) (* (- 108) ?x1203) ?x834 (* 12 (* s!1 s!1 s00)) ?x1322 (* (- 432) (* x!0 r00 r00 r00)) (* 216 (* x!0 s00 r00)) (* (- 36) (* s!1 s!1 r00 r00)) ?x1326 (* 216 (* x!0 x00)) ?x1327)))
 (let ((?x841 (* (- 36) ?x828)))
 (let ((?x757 (* 6 ?x756)))
 (let ((?x647 (* (- 2) ?x619)))
 (let ((?x867 (* (- 15) ?x542)))
 (let ((?x502 (* (- 54) ?x473)))
 (let ((?x515 (* 24 ?x377)))
 (let ((?x1161 (+ ?x1561 ?x938 (* (- 24) (* r!2 s!1)) (* 24 (* r!2 s00)) ?x515 ?x502 (* 3 ?x1439) (* 54 (* r!2 x!0)) (* 36 (* r!2 x!0 r00)) ?x513 ?x867 (* (- 6) (* x!0 s00)) (* 54 (* x!0 r00)) ?x951 (* 4 (* s!1 s!1 r00)) (* (- 54) (* r!2 x00)) ?x647 (* 12 (* s!1 s00)) (* (- 24) (* s!1 r00)) (* (- 6) (* s!1 x00)) (* (- 2) (* s!1 s00 r00)) ?x757 (* 2 (* r!2 s!1 s!1)) (* 6 ?x1553) (* (- 4) (* r!2 s00 s00)) ?x841 (* 2 (* r!2 s!1 s00)) (* (- 36) (* r!2 r00 x00)) (* 36 (* x!0 r00 r00)))))
 (let ((?x599 (* 6 ?x598)))
 (let ((?x555 (* (- 4) ?x542)))
 (let ((?x487 (* (- 18) ?x473)))
 (let ((?x492 (* 9 ?x377)))
 (let ((?x329 (* (- 3) s00)))
 (let ((?x1516 (+ (* 3 s!1) ?x329 (* (- 9) (* r!2 s!1)) (* 9 (* r!2 s00)) ?x492 ?x487 (* 2 ?x1439) (* 18 (* r!2 x!0)) (* 6 (* r!2 s!1 r00)) (* (- 6) ?x367) ?x555 (* 18 (* x!0 r00)) ?x599 (* (- 18) (* r!2 x00)) (* 2 (* s!1 s00)) (* (- 9) (* s!1 r00)) (* (- 6) (* r!2 s00 r00)))))
 (let ((?x1437 (+ ?x1595 ?x481 ?x1497 ?x44 ?x451 ?x452 (* 2 (* r!2 s!1)) (* (- 12) (* r!2 r00 r00)) (* 4 (* r!2 s00)) ?x455 ?x421)))
 (let (($x957 (and (= (+ s!1 (* (- 1) s00) (* (- 3) ?x521) (* 3 ?x252)) 0) (= ?x1437 0) (= ?x1516 0) (= ?x1161 0) (= ?x1355 0) (not (= (* ?x632 (+ ?x733 s00 ?x739 ?x266)) 0)))))
 (let (($x629 (exists ((r Int) (s Int) (x Int) )(! (let ((?x252 (* r00 r00)))
 (let ((?x266 (* (- 3) ?x252)))
 (let ((?x240 (* r r)))
 (let ((?x241 (* 3 ?x240)))
 (let ((?x231 (* (- 1) s)))
 (let ((?x805 (* x x)))
 (let ((?x496 (* s s)))
 (let ((?x43 (* 3 r)))
 (let ((?x1614 (+ 2 ?x43 ?x240 ?x496 (* 3 (* r s s)) (* (- 2) (* s x)) ?x805 (* 3 (* r x x)) (* 3 (* r r x x)) (* r r r x x) (* 3 (* r r s s)) (* r r r s s) (* (- 6) (* r s x)) (* (- 6) (* r r s x)) (* (- 2) (* r r r s x)))))
 (let ((?x1297 (* x00 x00)))
 (let ((?x1327 (* (- 108) ?x1297)))
 (let ((?x1135 (* s00 s00 s00)))
 (let ((?x1326 (* (- 16) ?x1135)))
 (let ((?x1007 (* s00 r00 r00 r00)))
 (let ((?x1322 (* (- 216) ?x1007)))
 (let ((?x833 (* r00 r00 r00 x00)))
 (let ((?x834 (* 432 ?x833)))
 (let ((?x756 (* s00 x00)))
 (let ((?x1080 (* 108 ?x756)))
 (let ((?x682 (* s00 s00 r00 r00)))
 (let ((?x683 (* 36 ?x682)))
 (let ((?x619 (* s00 s00 r00)))
 (let ((?x963 (* 108 ?x619)))
 (let ((?x598 (* s00 r00 r00)))
 (let ((?x951 (* 36 ?x598)))
 (let ((?x542 (* s00 s00)))
 (let ((?x1316 (* (- 51) ?x542)))
 (let ((?x516 (* s r00 r00)))
 (let ((?x815 (* (- 36) ?x516)))
 (let ((?x473 (* r00 x00)))
 (let ((?x1313 (* (- 108) ?x473)))
 (let ((?x464 (* s00 r00 x00)))
 (let ((?x1312 (* (- 216) ?x464)))
 (let ((?x377 (* s00 r00)))
 (let ((?x471 (* 54 ?x377)))
 (let ((?x938 (* (- 9) s00)))
 (let ((?x143 (* 9 s)))
 (let ((?x1328 (+ ?x143 ?x938 ?x471 ?x1312 ?x1313 (* (- 15) ?x496) ?x815 ?x1316 (* (- 108) (* x s00)) (* 108 (* x r00)) (* 216 (* s r00 r00 r00)) ?x951 ?x963 (* 66 (* s s00)) (* (- 54) (* s r00)) (* (- 108) (* s x00)) ?x683 (* (- 108) (* s s00 r00)) (* 4 (* s s s)) ?x1080 (* 108 (* s x)) (* (- 108) ?x805) ?x834 (* 12 (* s s s00)) ?x1322 (* (- 432) (* x r00 r00 r00)) (* 216 (* x s00 r00)) (* (- 36) (* s s r00 r00)) ?x1326 (* 216 (* x x00)) ?x1327)))
 (let (($x1329 (= ?x1328 0)))
 (let ((?x828 (* r00 r00 x00)))
 (let ((?x841 (* (- 36) ?x828)))
 (let ((?x757 (* 6 ?x756)))
 (let ((?x647 (* (- 2) ?x619)))
 (let ((?x867 (* (- 15) ?x542)))
 (let ((?x520 (* 3 ?x496)))
 (let ((?x502 (* (- 54) ?x473)))
 (let ((?x515 (* 24 ?x377)))
 (let ((?x1030 (+ ?x143 ?x938 (* (- 24) (* r s)) (* 24 (* r s00)) ?x515 ?x502 ?x520 (* 54 (* r x)) (* 36 (* r x r00)) ?x815 ?x867 (* (- 6) (* x s00)) (* 54 (* x r00)) ?x951 (* 4 (* s s r00)) (* (- 54) (* r x00)) ?x647 (* 12 (* s s00)) (* (- 24) (* s r00)) (* (- 6) (* s x00)) (* (- 2) (* s s00 r00)) ?x757 (* 2 (* r s s)) (* 6 (* s x)) (* (- 4) (* r s00 s00)) ?x841 (* 2 (* r s s00)) (* (- 36) (* r r00 x00)) (* 36 (* x r00 r00)))))
 (let (($x1035 (= ?x1030 0)))
 (let ((?x599 (* 6 ?x598)))
 (let ((?x555 (* (- 4) ?x542)))
 (let ((?x497 (* 2 ?x496)))
 (let ((?x487 (* (- 18) ?x473)))
 (let ((?x492 (* 9 ?x377)))
 (let ((?x329 (* (- 3) s00)))
 (let ((?x47 (* 3 s)))
 (let ((?x696 (+ ?x47 ?x329 (* (- 9) (* r s)) (* 9 (* r s00)) ?x492 ?x487 ?x497 (* 18 (* r x)) (* 6 (* r s r00)) (* (- 6) ?x516) ?x555 (* 18 (* x r00)) ?x599 (* (- 18) (* r x00)) (* 2 (* s s00)) (* (- 9) (* s r00)) (* (- 6) (* r s00 r00)))))
 (let (($x703 (= ?x696 0)))
 (let ((?x420 (* r00 r00 r00)))
 (let ((?x421 (* 12 ?x420)))
 (let ((?x455 (* (- 6) ?x377)))
 (let ((?x452 (* (- 6) x00)))
 (let ((?x451 (* (- 3) r00)))
 (let ((?x44 (* 3 s00)))
 (let ((?x56 (* 6 x)))
 (let ((?x450 (* (- 3) s)))
 (let ((?x456 (+ ?x43 ?x450 ?x56 ?x44 ?x451 ?x452 (* 2 (* r s)) (* (- 12) (* r r00 r00)) (* 4 (* r s00)) ?x455 ?x421)))
 (let (($x457 (= ?x456 0)))
 (let (($x285 (= (+ s (* (- 1) s00) (* (- 3) ?x240) (* 3 ?x252)) 0)))
 (and $x285 $x457 $x703 $x1035 $x1329 (not (= (* ?x1614 (+ ?x231 s00 ?x241 ?x266)) 0)))))))))))))))))))))))))))))))))))))))))))))))))))))))))))))))))))))))) :qid k!35))
 ))
 (let (($x1501 (exists ((r Int) (s Int) (x Int) )(! (let ((?x252 (* r00 r00)))
 (let ((?x266 (* (- 3) ?x252)))
 (let ((?x231 (* (- 1) s)))
 (let ((?x1226 (+ (- 3) s00 ?x231 (* (- 6) r) (* 3 (* (+ 1 r) (+ 1 r))) ?x266)))
 (let ((?x658 (+ x ?x231)))
 (let ((?x1340 (+ 1 r)))
 (let ((?x660 (* ?x1340 ?x1340)))
 (let (($x707 (= (* (+ 1 r ?x660 (* ?x1340 ?x1340 ?x1340 ?x658 ?x658)) ?x1226) 0)))
 (let (($x929 (not $x707)))
 (let ((?x1297 (* x00 x00)))
 (let ((?x1071 (* 108 ?x1297)))
 (let ((?x916 (* (- 9) s)))
 (let ((?x1571 (* r00 r00 s00)))
 (let ((?x813 (* (- 36) ?x1571)))
 (let ((?x137 (* 9 s00)))
 (let ((?x542 (* s00 s00)))
 (let ((?x482 (* 51 ?x542)))
 (let ((?x434 (* r00 r00 s)))
 (let ((?x1154 (* 36 ?x434)))
 (let ((?x1135 (* s00 s00 s00)))
 (let ((?x1096 (* 16 ?x1135)))
 (let ((?x756 (* s00 x00)))
 (let ((?x587 (* (- 108) ?x756)))
 (let ((?x833 (* r00 r00 r00 x00)))
 (let ((?x665 (* (- 432) ?x833)))
 (let ((?x473 (* r00 x00)))
 (let ((?x330 (* 108 ?x473)))
 (let ((?x1078 (+ (* 216 (* r00 s00 x00)) ?x330 (* (- 54) (* r00 s00)) (* 15 (* s s)) (* (- 216) (* r00 r00 r00 s)) (* (- 36) (* r00 r00 s00 s00)) (* (- 4) (* s s s)) (* 108 (* x x)) ?x665 (* (- 12) (* s00 s s)) (* 108 (* s00 x)) (* (- 108) (* r00 s00 s00)) (* 216 (* r00 r00 r00 s00)) (* 108 (* x00 s)) (* 432 (* r00 r00 r00 x)) (* (- 66) (* s00 s)) (* 108 (* r00 s00 s)) ?x587 (* (- 216) (* r00 s00 x)) (* 36 (* r00 r00 s s)) ?x1096 (* (- 108) (* x s)) ?x1154 ?x482 (* (- 108) (* r00 x)) ?x137 ?x813 ?x916 (* 54 (* r00 s)) (* (- 216) (* x00 x)) ?x1071)))
 (let (($x1084 (= ?x1078 0)))
 (let ((?x1514 (* 15 ?x542)))
 (let ((?x828 (* r00 r00 x00)))
 (let ((?x1284 (* 36 ?x828)))
 (let ((?x617 (* (- 6) ?x756)))
 (let ((?x910 (* 54 ?x473)))
 (let ((?x1506 (+ (* 24 (* s r)) ?x910 (* (- 36) (* r00 x r)) (* (- 24) (* r00 s00)) (* (- 3) (* s s)) (* (- 54) (* x r)) (* 6 (* s00 x)) (* (- 4) (* r00 s s)) (* 2 (* r00 s00 s00)) (* 6 (* x00 s)) (* (- 12) (* s00 s)) (* 2 (* r00 s00 s)) ?x617 (* (- 2) (* s s r)) (* (- 6) (* x s)) (* 4 (* s00 s00 r)) ?x1154 ?x1284 ?x1514 (* (- 2) (* s00 s r)) (* 36 (* r00 x00 r)) (* (- 54) (* r00 x)) ?x137 ?x813 (* 54 (* x00 r)) ?x916 (* (- 24) (* s00 r)) (* 24 (* r00 s)) (* (- 36) (* r00 r00 x)))))
 (let ((?x450 (* (- 3) s)))
 (let ((?x44 (* 3 s00)))
 (let ((?x906 (* 4 ?x542)))
 (let ((?x993 (* 18 ?x473)))
 (let ((?x1363 (+ (* 9 (* s r)) ?x993 (* (- 9) (* r00 s00)) (* (- 2) (* s s)) (* (- 18) (* x r)) (* (- 6) (* r00 s r)) (* 6 ?x434) ?x906 (* (- 18) (* r00 x)) ?x44 (* (- 6) ?x1571) (* 18 (* x00 r)) ?x450 (* (- 9) (* s00 r)) (* (- 2) (* s00 s)) (* 9 (* r00 s)) (* 6 (* r00 s00 r)))))
 (let ((?x420 (* r00 r00 r00)))
 (let ((?x421 (* 12 ?x420)))
 (let ((?x452 (* (- 6) x00)))
 (let ((?x56 (* 6 x)))
 (let ((?x451 (* (- 3) r00)))
 (let ((?x43 (* 3 r)))
 (let ((?x671 (+ (* 2 (* s r)) (* (- 12) (* r00 r00 r)) ?x43 ?x44 ?x450 ?x451 (* 4 (* s00 r)) (* (- 6) (* r00 s00)) ?x56 ?x452 ?x421)))
 (let (($x503 (= (+ s00 ?x231 (* 3 (* r r)) ?x266) 0)))
 (and $x503 (= ?x671 0) (= ?x1363 0) (= ?x1506 0) $x1084 $x929))))))))))))))))))))))))))))))))))))))))))))))))) :qid k!35))
 ))
 (let ((?x630 (lambda ((r Int) (s Int) (x Int) )(let ((?x252 (* r00 r00)))
 (let ((?x266 (* (- 3) ?x252)))
 (let ((?x240 (* r r)))
 (let ((?x241 (* 3 ?x240)))
 (let ((?x231 (* (- 1) s)))
 (let ((?x805 (* x x)))
 (let ((?x496 (* s s)))
 (let ((?x43 (* 3 r)))
 (let ((?x1614 (+ 2 ?x43 ?x240 ?x496 (* 3 (* r s s)) (* (- 2) (* s x)) ?x805 (* 3 (* r x x)) (* 3 (* r r x x)) (* r r r x x) (* 3 (* r r s s)) (* r r r s s) (* (- 6) (* r s x)) (* (- 6) (* r r s x)) (* (- 2) (* r r r s x)))))
 (let ((?x1297 (* x00 x00)))
 (let ((?x1327 (* (- 108) ?x1297)))
 (let ((?x1135 (* s00 s00 s00)))
 (let ((?x1326 (* (- 16) ?x1135)))
 (let ((?x1007 (* s00 r00 r00 r00)))
 (let ((?x1322 (* (- 216) ?x1007)))
 (let ((?x833 (* r00 r00 r00 x00)))
 (let ((?x834 (* 432 ?x833)))
 (let ((?x756 (* s00 x00)))
 (let ((?x1080 (* 108 ?x756)))
 (let ((?x682 (* s00 s00 r00 r00)))
 (let ((?x683 (* 36 ?x682)))
 (let ((?x619 (* s00 s00 r00)))
 (let ((?x963 (* 108 ?x619)))
 (let ((?x598 (* s00 r00 r00)))
 (let ((?x951 (* 36 ?x598)))
 (let ((?x542 (* s00 s00)))
 (let ((?x1316 (* (- 51) ?x542)))
 (let ((?x516 (* s r00 r00)))
 (let ((?x815 (* (- 36) ?x516)))
 (let ((?x473 (* r00 x00)))
 (let ((?x1313 (* (- 108) ?x473)))
 (let ((?x464 (* s00 r00 x00)))
 (let ((?x1312 (* (- 216) ?x464)))
 (let ((?x377 (* s00 r00)))
 (let ((?x471 (* 54 ?x377)))
 (let ((?x938 (* (- 9) s00)))
 (let ((?x143 (* 9 s)))
 (let ((?x1328 (+ ?x143 ?x938 ?x471 ?x1312 ?x1313 (* (- 15) ?x496) ?x815 ?x1316 (* (- 108) (* x s00)) (* 108 (* x r00)) (* 216 (* s r00 r00 r00)) ?x951 ?x963 (* 66 (* s s00)) (* (- 54) (* s r00)) (* (- 108) (* s x00)) ?x683 (* (- 108) (* s s00 r00)) (* 4 (* s s s)) ?x1080 (* 108 (* s x)) (* (- 108) ?x805) ?x834 (* 12 (* s s s00)) ?x1322 (* (- 432) (* x r00 r00 r00)) (* 216 (* x s00 r00)) (* (- 36) (* s s r00 r00)) ?x1326 (* 216 (* x x00)) ?x1327)))
 (let (($x1329 (= ?x1328 0)))
 (let ((?x828 (* r00 r00 x00)))
 (let ((?x841 (* (- 36) ?x828)))
 (let ((?x757 (* 6 ?x756)))
 (let ((?x647 (* (- 2) ?x619)))
 (let ((?x867 (* (- 15) ?x542)))
 (let ((?x520 (* 3 ?x496)))
 (let ((?x502 (* (- 54) ?x473)))
 (let ((?x515 (* 24 ?x377)))
 (let ((?x1030 (+ ?x143 ?x938 (* (- 24) (* r s)) (* 24 (* r s00)) ?x515 ?x502 ?x520 (* 54 (* r x)) (* 36 (* r x r00)) ?x815 ?x867 (* (- 6) (* x s00)) (* 54 (* x r00)) ?x951 (* 4 (* s s r00)) (* (- 54) (* r x00)) ?x647 (* 12 (* s s00)) (* (- 24) (* s r00)) (* (- 6) (* s x00)) (* (- 2) (* s s00 r00)) ?x757 (* 2 (* r s s)) (* 6 (* s x)) (* (- 4) (* r s00 s00)) ?x841 (* 2 (* r s s00)) (* (- 36) (* r r00 x00)) (* 36 (* x r00 r00)))))
 (let (($x1035 (= ?x1030 0)))
 (let ((?x599 (* 6 ?x598)))
 (let ((?x555 (* (- 4) ?x542)))
 (let ((?x497 (* 2 ?x496)))
 (let ((?x487 (* (- 18) ?x473)))
 (let ((?x492 (* 9 ?x377)))
 (let ((?x329 (* (- 3) s00)))
 (let ((?x47 (* 3 s)))
 (let ((?x696 (+ ?x47 ?x329 (* (- 9) (* r s)) (* 9 (* r s00)) ?x492 ?x487 ?x497 (* 18 (* r x)) (* 6 (* r s r00)) (* (- 6) ?x516) ?x555 (* 18 (* x r00)) ?x599 (* (- 18) (* r x00)) (* 2 (* s s00)) (* (- 9) (* s r00)) (* (- 6) (* r s00 r00)))))
 (let (($x703 (= ?x696 0)))
 (let ((?x420 (* r00 r00 r00)))
 (let ((?x421 (* 12 ?x420)))
 (let ((?x455 (* (- 6) ?x377)))
 (let ((?x452 (* (- 6) x00)))
 (let ((?x451 (* (- 3) r00)))
 (let ((?x44 (* 3 s00)))
 (let ((?x56 (* 6 x)))
 (let ((?x450 (* (- 3) s)))
 (let ((?x456 (+ ?x43 ?x450 ?x56 ?x44 ?x451 ?x452 (* 2 (* r s)) (* (- 12) (* r r00 r00)) (* 4 (* r s00)) ?x455 ?x421)))
 (let (($x457 (= ?x456 0)))
 (let (($x285 (= (+ s (* (- 1) s00) (* (- 3) ?x240) (* 3 ?x252)) 0)))
 (let (($x1242 (and $x285 $x457 $x703 $x1035 $x1329 (not (= (* ?x1614 (+ ?x231 s00 ?x241 ?x266)) 0)))))
 (let ((?x1226 (+ (- 3) s00 ?x231 (* (- 6) r) (* 3 (* (+ 1 r) (+ 1 r))) ?x266)))
 (let ((?x658 (+ x ?x231)))
 (let ((?x1340 (+ 1 r)))
 (let ((?x660 (* ?x1340 ?x1340)))
 (let (($x707 (= (* (+ 1 r ?x660 (* ?x1340 ?x1340 ?x1340 ?x658 ?x658)) ?x1226) 0)))
 (let (($x929 (not $x707)))
 (let ((?x1071 (* 108 ?x1297)))
 (let ((?x916 (* (- 9) s)))
 (let ((?x1571 (* r00 r00 s00)))
 (let ((?x813 (* (- 36) ?x1571)))
 (let ((?x137 (* 9 s00)))
 (let ((?x482 (* 51 ?x542)))
 (let ((?x434 (* r00 r00 s)))
 (let ((?x1154 (* 36 ?x434)))
 (let ((?x1096 (* 16 ?x1135)))
 (let ((?x587 (* (- 108) ?x756)))
 (let ((?x665 (* (- 432) ?x833)))
 (let ((?x330 (* 108 ?x473)))
 (let ((?x1078 (+ (* 216 (* r00 s00 x00)) ?x330 (* (- 54) (* r00 s00)) (* 15 ?x496) (* (- 216) (* r00 r00 r00 s)) (* (- 36) (* r00 r00 s00 s00)) (* (- 4) (* s s s)) (* 108 ?x805) ?x665 (* (- 12) (* s00 s s)) (* 108 (* s00 x)) (* (- 108) (* r00 s00 s00)) (* 216 (* r00 r00 r00 s00)) (* 108 (* x00 s)) (* 432 (* r00 r00 r00 x)) (* (- 66) (* s00 s)) (* 108 (* r00 s00 s)) ?x587 (* (- 216) (* r00 s00 x)) (* 36 (* r00 r00 s s)) ?x1096 (* (- 108) (* x s)) ?x1154 ?x482 (* (- 108) (* r00 x)) ?x137 ?x813 ?x916 (* 54 (* r00 s)) (* (- 216) (* x00 x)) ?x1071)))
 (let (($x1084 (= ?x1078 0)))
 (let ((?x1514 (* 15 ?x542)))
 (let ((?x1284 (* 36 ?x828)))
 (let ((?x617 (* (- 6) ?x756)))
 (let ((?x910 (* 54 ?x473)))
 (let ((?x1506 (+ (* 24 (* s r)) ?x910 (* (- 36) (* r00 x r)) (* (- 24) (* r00 s00)) (* (- 3) ?x496) (* (- 54) (* x r)) (* 6 (* s00 x)) (* (- 4) (* r00 s s)) (* 2 (* r00 s00 s00)) (* 6 (* x00 s)) (* (- 12) (* s00 s)) (* 2 (* r00 s00 s)) ?x617 (* (- 2) (* s s r)) (* (- 6) (* x s)) (* 4 (* s00 s00 r)) ?x1154 ?x1284 ?x1514 (* (- 2) (* s00 s r)) (* 36 (* r00 x00 r)) (* (- 54) (* r00 x)) ?x137 ?x813 (* 54 (* x00 r)) ?x916 (* (- 24) (* s00 r)) (* 24 (* r00 s)) (* (- 36) (* r00 r00 x)))))
 (let ((?x906 (* 4 ?x542)))
 (let ((?x993 (* 18 ?x473)))
 (let ((?x1363 (+ (* 9 (* s r)) ?x993 (* (- 9) (* r00 s00)) (* (- 2) ?x496) (* (- 18) (* x r)) (* (- 6) (* r00 s r)) (* 6 ?x434) ?x906 (* (- 18) (* r00 x)) ?x44 (* (- 6) ?x1571) (* 18 (* x00 r)) ?x450 (* (- 9) (* s00 r)) (* (- 2) (* s00 s)) (* 9 (* r00 s)) (* 6 (* r00 s00 r)))))
 (let ((?x671 (+ (* 2 (* s r)) (* (- 12) (* r00 r00 r)) ?x43 ?x44 ?x450 ?x451 (* 4 (* s00 r)) (* (- 6) (* r00 s00)) ?x56 ?x452 ?x421)))
 (let (($x503 (= (+ s00 ?x231 ?x241 ?x266) 0)))
 (let (($x1508 (and $x503 (= ?x671 0) (= ?x1363 0) (= ?x1506 0) $x1084 $x929)))
 (rewrite (= $x1508 $x1242))))))))))))))))))))))))))))))))))))))))))))))))))))))))))))))))))))))))))))))))))))))))))))))))))))))))
 ))
 (let (($x593 (exists ((r Int) (s Int) (x Int) )(! (let ((?x252 (* r00 r00)))
 (let ((?x266 (* (- 3) ?x252)))
 (let ((?x231 (* (- 1) s)))
 (let ((?x1226 (+ (- 3) s00 ?x231 (* (- 6) r) (* 3 (* (+ 1 r) (+ 1 r))) ?x266)))
 (let ((?x658 (+ x ?x231)))
 (let ((?x1340 (+ 1 r)))
 (let ((?x660 (* ?x1340 ?x1340)))
 (let (($x707 (= (* (+ 1 r ?x660 (* ?x1340 ?x1340 ?x1340 ?x658 ?x658)) ?x1226) 0)))
 (let (($x929 (not $x707)))
 (let ((?x1297 (* x00 x00)))
 (let ((?x1071 (* 108 ?x1297)))
 (let ((?x916 (* (- 9) s)))
 (let ((?x1571 (* r00 r00 s00)))
 (let ((?x813 (* (- 36) ?x1571)))
 (let ((?x137 (* 9 s00)))
 (let ((?x542 (* s00 s00)))
 (let ((?x482 (* 51 ?x542)))
 (let ((?x434 (* r00 r00 s)))
 (let ((?x1154 (* 36 ?x434)))
 (let ((?x1135 (* s00 s00 s00)))
 (let ((?x1096 (* 16 ?x1135)))
 (let ((?x756 (* s00 x00)))
 (let ((?x587 (* (- 108) ?x756)))
 (let ((?x833 (* r00 r00 r00 x00)))
 (let ((?x665 (* (- 432) ?x833)))
 (let ((?x473 (* r00 x00)))
 (let ((?x330 (* 108 ?x473)))
 (let ((?x1078 (+ (* 216 (* r00 s00 x00)) ?x330 (* (- 54) (* r00 s00)) (* 15 (* s s)) (* (- 216) (* r00 r00 r00 s)) (* (- 36) (* r00 r00 s00 s00)) (* (- 4) (* s s s)) (* 108 (* x x)) ?x665 (* (- 12) (* s00 s s)) (* 108 (* s00 x)) (* (- 108) (* r00 s00 s00)) (* 216 (* r00 r00 r00 s00)) (* 108 (* x00 s)) (* 432 (* r00 r00 r00 x)) (* (- 66) (* s00 s)) (* 108 (* r00 s00 s)) ?x587 (* (- 216) (* r00 s00 x)) (* 36 (* r00 r00 s s)) ?x1096 (* (- 108) (* x s)) ?x1154 ?x482 (* (- 108) (* r00 x)) ?x137 ?x813 ?x916 (* 54 (* r00 s)) (* (- 216) (* x00 x)) ?x1071)))
 (let (($x1084 (= ?x1078 0)))
 (let ((?x143 (* 9 s)))
 (let ((?x938 (* (- 9) s00)))
 (let ((?x867 (* (- 15) ?x542)))
 (let ((?x828 (* r00 r00 x00)))
 (let ((?x841 (* (- 36) ?x828)))
 (let ((?x757 (* 6 ?x756)))
 (let ((?x496 (* s s)))
 (let ((?x520 (* 3 ?x496)))
 (let ((?x502 (* (- 54) ?x473)))
 (let ((?x1013 (+ (* (- 24) (* s r)) ?x502 (* 36 (* r00 x r)) (* 24 (* r00 s00)) ?x520 (* 54 (* x r)) (* (- 6) (* s00 x)) (* 4 (* r00 s s)) (* (- 2) (* r00 s00 s00)) (* (- 6) (* x00 s)) (* 12 (* s00 s)) (* (- 2) (* r00 s00 s)) ?x757 (* 2 (* s s r)) (* 6 (* x s)) (* (- 4) (* s00 s00 r)) (* (- 36) ?x434) ?x841 ?x867 (* 2 (* s00 s r)) (* (- 36) (* r00 x00 r)) (* 54 (* r00 x)) ?x938 (* 36 ?x1571) (* (- 54) (* x00 r)) ?x143 (* 24 (* s00 r)) (* (- 24) (* r00 s)) (* 36 (* r00 r00 x)))))
 (let ((?x47 (* 3 s)))
 (let ((?x329 (* (- 3) s00)))
 (let ((?x555 (* (- 4) ?x542)))
 (let ((?x497 (* 2 ?x496)))
 (let ((?x487 (* (- 18) ?x473)))
 (let ((?x557 (+ (* (- 9) (* s r)) ?x487 (* 9 (* r00 s00)) ?x497 (* 18 (* x r)) (* 6 (* r00 s r)) (* (- 6) ?x434) ?x555 (* 18 (* r00 x)) ?x329 (* 6 ?x1571) (* (- 18) (* x00 r)) ?x47 (* 9 (* s00 r)) (* 2 (* s00 s)) (* (- 9) (* r00 s)) (* (- 6) (* r00 s00 r)))))
 (let ((?x59 (* 6 x00)))
 (let ((?x48 (* 3 r00)))
 (let ((?x300 (* (- 3) r)))
 (let ((?x1509 (+ (* (- 2) (* s r)) (* 12 (* r00 r00 r)) ?x300 ?x329 ?x47 ?x48 (* (- 4) (* s00 r)) (* 6 (* r00 s00)) (* (- 6) x) ?x59 (* (- 12) (* r00 r00 r00)))))
 (let (($x503 (= (+ s00 ?x231 (* 3 (* r r)) ?x266) 0)))
 (and $x503 (= ?x1509 0) (= ?x557 0) (= ?x1013 0) $x1084 $x929))))))))))))))))))))))))))))))))))))))))))))))))))) :qid k!35))
 ))
 (let ((?x1507 (lambda ((r Int) (s Int) (x Int) )(let ((?x252 (* r00 r00)))
 (let ((?x266 (* (- 3) ?x252)))
 (let ((?x231 (* (- 1) s)))
 (let ((?x1226 (+ (- 3) s00 ?x231 (* (- 6) r) (* 3 (* (+ 1 r) (+ 1 r))) ?x266)))
 (let ((?x658 (+ x ?x231)))
 (let ((?x1340 (+ 1 r)))
 (let ((?x660 (* ?x1340 ?x1340)))
 (let (($x707 (= (* (+ 1 r ?x660 (* ?x1340 ?x1340 ?x1340 ?x658 ?x658)) ?x1226) 0)))
 (let (($x929 (not $x707)))
 (let ((?x1297 (* x00 x00)))
 (let ((?x1071 (* 108 ?x1297)))
 (let ((?x916 (* (- 9) s)))
 (let ((?x1571 (* r00 r00 s00)))
 (let ((?x813 (* (- 36) ?x1571)))
 (let ((?x137 (* 9 s00)))
 (let ((?x542 (* s00 s00)))
 (let ((?x482 (* 51 ?x542)))
 (let ((?x434 (* r00 r00 s)))
 (let ((?x1154 (* 36 ?x434)))
 (let ((?x1135 (* s00 s00 s00)))
 (let ((?x1096 (* 16 ?x1135)))
 (let ((?x756 (* s00 x00)))
 (let ((?x587 (* (- 108) ?x756)))
 (let ((?x833 (* r00 r00 r00 x00)))
 (let ((?x665 (* (- 432) ?x833)))
 (let ((?x473 (* r00 x00)))
 (let ((?x330 (* 108 ?x473)))
 (let ((?x1078 (+ (* 216 (* r00 s00 x00)) ?x330 (* (- 54) (* r00 s00)) (* 15 (* s s)) (* (- 216) (* r00 r00 r00 s)) (* (- 36) (* r00 r00 s00 s00)) (* (- 4) (* s s s)) (* 108 (* x x)) ?x665 (* (- 12) (* s00 s s)) (* 108 (* s00 x)) (* (- 108) (* r00 s00 s00)) (* 216 (* r00 r00 r00 s00)) (* 108 (* x00 s)) (* 432 (* r00 r00 r00 x)) (* (- 66) (* s00 s)) (* 108 (* r00 s00 s)) ?x587 (* (- 216) (* r00 s00 x)) (* 36 (* r00 r00 s s)) ?x1096 (* (- 108) (* x s)) ?x1154 ?x482 (* (- 108) (* r00 x)) ?x137 ?x813 ?x916 (* 54 (* r00 s)) (* (- 216) (* x00 x)) ?x1071)))
 (let (($x1084 (= ?x1078 0)))
 (let ((?x1514 (* 15 ?x542)))
 (let ((?x828 (* r00 r00 x00)))
 (let ((?x1284 (* 36 ?x828)))
 (let ((?x617 (* (- 6) ?x756)))
 (let ((?x910 (* 54 ?x473)))
 (let ((?x1506 (+ (* 24 (* s r)) ?x910 (* (- 36) (* r00 x r)) (* (- 24) (* r00 s00)) (* (- 3) (* s s)) (* (- 54) (* x r)) (* 6 (* s00 x)) (* (- 4) (* r00 s s)) (* 2 (* r00 s00 s00)) (* 6 (* x00 s)) (* (- 12) (* s00 s)) (* 2 (* r00 s00 s)) ?x617 (* (- 2) (* s s r)) (* (- 6) (* x s)) (* 4 (* s00 s00 r)) ?x1154 ?x1284 ?x1514 (* (- 2) (* s00 s r)) (* 36 (* r00 x00 r)) (* (- 54) (* r00 x)) ?x137 ?x813 (* 54 (* x00 r)) ?x916 (* (- 24) (* s00 r)) (* 24 (* r00 s)) (* (- 36) (* r00 r00 x)))))
 (let ((?x450 (* (- 3) s)))
 (let ((?x44 (* 3 s00)))
 (let ((?x906 (* 4 ?x542)))
 (let ((?x993 (* 18 ?x473)))
 (let ((?x1363 (+ (* 9 (* s r)) ?x993 (* (- 9) (* r00 s00)) (* (- 2) (* s s)) (* (- 18) (* x r)) (* (- 6) (* r00 s r)) (* 6 ?x434) ?x906 (* (- 18) (* r00 x)) ?x44 (* (- 6) ?x1571) (* 18 (* x00 r)) ?x450 (* (- 9) (* s00 r)) (* (- 2) (* s00 s)) (* 9 (* r00 s)) (* 6 (* r00 s00 r)))))
 (let ((?x420 (* r00 r00 r00)))
 (let ((?x421 (* 12 ?x420)))
 (let ((?x452 (* (- 6) x00)))
 (let ((?x56 (* 6 x)))
 (let ((?x451 (* (- 3) r00)))
 (let ((?x43 (* 3 r)))
 (let ((?x671 (+ (* 2 (* s r)) (* (- 12) (* r00 r00 r)) ?x43 ?x44 ?x450 ?x451 (* 4 (* s00 r)) (* (- 6) (* r00 s00)) ?x56 ?x452 ?x421)))
 (let (($x503 (= (+ s00 ?x231 (* 3 (* r r)) ?x266) 0)))
 (let (($x1508 (and $x503 (= ?x671 0) (= ?x1363 0) (= ?x1506 0) $x1084 $x929)))
 (let ((?x143 (* 9 s)))
 (let ((?x938 (* (- 9) s00)))
 (let ((?x867 (* (- 15) ?x542)))
 (let ((?x841 (* (- 36) ?x828)))
 (let ((?x757 (* 6 ?x756)))
 (let ((?x496 (* s s)))
 (let ((?x520 (* 3 ?x496)))
 (let ((?x502 (* (- 54) ?x473)))
 (let ((?x1013 (+ (* (- 24) (* s r)) ?x502 (* 36 (* r00 x r)) (* 24 (* r00 s00)) ?x520 (* 54 (* x r)) (* (- 6) (* s00 x)) (* 4 (* r00 s s)) (* (- 2) (* r00 s00 s00)) (* (- 6) (* x00 s)) (* 12 (* s00 s)) (* (- 2) (* r00 s00 s)) ?x757 (* 2 (* s s r)) (* 6 (* x s)) (* (- 4) (* s00 s00 r)) (* (- 36) ?x434) ?x841 ?x867 (* 2 (* s00 s r)) (* (- 36) (* r00 x00 r)) (* 54 (* r00 x)) ?x938 (* 36 ?x1571) (* (- 54) (* x00 r)) ?x143 (* 24 (* s00 r)) (* (- 24) (* r00 s)) (* 36 (* r00 r00 x)))))
 (let ((?x47 (* 3 s)))
 (let ((?x329 (* (- 3) s00)))
 (let ((?x555 (* (- 4) ?x542)))
 (let ((?x497 (* 2 ?x496)))
 (let ((?x487 (* (- 18) ?x473)))
 (let ((?x557 (+ (* (- 9) (* s r)) ?x487 (* 9 (* r00 s00)) ?x497 (* 18 (* x r)) (* 6 (* r00 s r)) (* (- 6) ?x434) ?x555 (* 18 (* r00 x)) ?x329 (* 6 ?x1571) (* (- 18) (* x00 r)) ?x47 (* 9 (* s00 r)) (* 2 (* s00 s)) (* (- 9) (* r00 s)) (* (- 6) (* r00 s00 r)))))
 (let ((?x59 (* 6 x00)))
 (let ((?x48 (* 3 r00)))
 (let ((?x300 (* (- 3) r)))
 (let ((?x1509 (+ (* (- 2) (* s r)) (* 12 (* r00 r00 r)) ?x300 ?x329 ?x47 ?x48 (* (- 4) (* s00 r)) (* 6 (* r00 s00)) (* (- 6) x) ?x59 (* (- 12) ?x420))))
 (let (($x491 (and $x503 (= ?x1509 0) (= ?x557 0) (= ?x1013 0) $x1084 $x929)))
 (rewrite (= $x491 $x1508))))))))))))))))))))))))))))))))))))))))))))))))))))))))))))))))))))))))
 ))
 (let (($x228 (exists ((r Int) (s Int) (x Int) )(! (let ((?x220 (- x s)))
 (let ((?x215 (+ r 1)))
 (let ((?x33 (* 3 r00 r00)))
 (let ((?x218 (- (+ (- s00 (+ s (* 6 r) 3)) (* 3 ?x215 ?x215)) ?x33)))
 (let (($x224 (= (* ?x218 (+ r 1 (* ?x215 ?x215) (* ?x215 ?x215 ?x215 ?x220 ?x220))) 0)))
 (let ((?x143 (* 9 s)))
 (let ((?x139 (* 36 r00 r00 s00)))
 (let ((?x137 (* 9 s00)))
 (let ((?x123 (* 36 r00 r00 s)))
 (let ((?x157 (- (+ (* 216 r00 s00 x00) (* 108 r00 x00)) (* 54 r00 s00))))
 (let ((?x164 (- (- (+ ?x157 (* 15 s s)) (* 216 r00 r00 r00 s)) (* 36 r00 r00 s00 s00))))
 (let ((?x171 (- (+ (- ?x164 (* 4 s s s)) (* 108 x x)) (* 432 r00 r00 r00 x00))))
 (let ((?x176 (- (+ (- ?x171 (* 12 s s s00)) (* 108 s00 x)) (* 108 r00 s00 s00))))
 (let ((?x180 (+ ?x176 (* 216 r00 r00 r00 s00) (* 108 s x00) (* 432 r00 r00 r00 x))))
 (let ((?x188 (- (+ (- ?x180 (* 66 s s00)) (* 108 r00 s s00)) (* 108 s00 x00))))
 (let ((?x193 (+ (- ?x188 (* 216 r00 s00 x)) (* 36 r00 r00 s s) (* 16 s00 s00 s00))))
 (let ((?x200 (- (+ (- ?x193 (* 108 s x)) ?x123 (* 51 s00 s00)) (* 108 r00 x))))
 (let ((?x207 (- (+ (- (- (+ ?x200 ?x137) ?x139) ?x143) (* 54 r00 s)) (* 216 x x00))))
 (let ((?x105 (+ (- (* (- 24) r s) (* 54 r00 x00)) (* 36 r r00 x) (* 24 r00 s00) (* 3 s s) (* 54 r x))))
 (let ((?x112 (- (+ (- ?x105 (* 6 s00 x)) (* 4 r00 s s)) (* 2 r00 s00 s00))))
 (let ((?x117 (- (+ (- ?x112 (* 6 s x00)) (* 12 s s00)) (* 2 r00 s s00))))
 (let ((?x121 (+ ?x117 (* 6 s00 x00) (* 2 r s s) (* 6 s x))))
 (let ((?x129 (- (- (- ?x121 (* 4 r s00 s00)) ?x123) (* 36 r00 r00 x00))))
 (let ((?x134 (- (+ (- ?x129 (* 15 s00 s00)) (* 2 r s s00)) (* 36 r r00 x00))))
 (let ((?x142 (- (+ (- (+ ?x134 (* 54 r00 x)) ?x137) ?x139) (* 54 r x00))))
 (let ((?x149 (+ (- (+ ?x142 ?x143 (* 24 r s00)) (* 24 r00 s)) (* 36 r00 r00 x))))
 (let ((?x47 (* 3 s)))
 (let ((?x44 (* 3 s00)))
 (let ((?x74 (+ (- (* (- 9) r s) (* 18 r00 x00)) (* 9 r00 s00) (* 2 s s) (* 18 r x) (* 6 r r00 s))))
 (let ((?x80 (+ (- (- ?x74 (* 6 r00 r00 s)) (* 4 s00 s00)) (* 18 r00 x))))
 (let ((?x85 (- (+ (- ?x80 ?x44) (* 6 r00 r00 s00)) (* 18 r x00))))
 (let ((?x91 (- (+ ?x85 ?x47 (* 9 r s00) (* 2 s s00)) (* 9 r00 s))))
 (let ((?x59 (* 6 x00)))
 (let ((?x56 (* 6 x)))
 (let ((?x48 (* 3 r00)))
 (let ((?x43 (* 3 r)))
 (let ((?x46 (- (- (+ (* (- 2) r s) (* 12 r r00 r00)) ?x43) ?x44)))
 (let ((?x55 (+ (- (+ ?x46 ?x47 ?x48) (* 4 r s00)) (* 6 r00 s00))))
 (and (= (- (+ (- s00 s) (* 3 r r)) ?x33) 0) (= (- (+ (- ?x55 ?x56) ?x59) (* 12 r00 r00 r00)) 0) (= (- ?x91 (* 6 r r00 s00)) 0) (= ?x149 0) (= (+ ?x207 (* 108 x00 x00)) 0) (or (not $x224))))))))))))))))))))))))))))))))))))))))) :qid k!35))
 ))
 (let ((?x939 (lambda ((r Int) (s Int) (x Int) )(let ((?x252 (* r00 r00)))
 (let ((?x266 (* (- 3) ?x252)))
 (let ((?x231 (* (- 1) s)))
 (let ((?x1226 (+ (- 3) s00 ?x231 (* (- 6) r) (* 3 (* (+ 1 r) (+ 1 r))) ?x266)))
 (let ((?x658 (+ x ?x231)))
 (let ((?x1340 (+ 1 r)))
 (let ((?x660 (* ?x1340 ?x1340)))
 (let (($x707 (= (* (+ 1 r ?x660 (* ?x1340 ?x1340 ?x1340 ?x658 ?x658)) ?x1226) 0)))
 (let (($x929 (not $x707)))
 (let ((?x1297 (* x00 x00)))
 (let ((?x1071 (* 108 ?x1297)))
 (let ((?x916 (* (- 9) s)))
 (let ((?x1571 (* r00 r00 s00)))
 (let ((?x813 (* (- 36) ?x1571)))
 (let ((?x137 (* 9 s00)))
 (let ((?x542 (* s00 s00)))
 (let ((?x482 (* 51 ?x542)))
 (let ((?x434 (* r00 r00 s)))
 (let ((?x1154 (* 36 ?x434)))
 (let ((?x1135 (* s00 s00 s00)))
 (let ((?x1096 (* 16 ?x1135)))
 (let ((?x756 (* s00 x00)))
 (let ((?x587 (* (- 108) ?x756)))
 (let ((?x833 (* r00 r00 r00 x00)))
 (let ((?x665 (* (- 432) ?x833)))
 (let ((?x473 (* r00 x00)))
 (let ((?x330 (* 108 ?x473)))
 (let ((?x1078 (+ (* 216 (* r00 s00 x00)) ?x330 (* (- 54) (* r00 s00)) (* 15 (* s s)) (* (- 216) (* r00 r00 r00 s)) (* (- 36) (* r00 r00 s00 s00)) (* (- 4) (* s s s)) (* 108 (* x x)) ?x665 (* (- 12) (* s00 s s)) (* 108 (* s00 x)) (* (- 108) (* r00 s00 s00)) (* 216 (* r00 r00 r00 s00)) (* 108 (* x00 s)) (* 432 (* r00 r00 r00 x)) (* (- 66) (* s00 s)) (* 108 (* r00 s00 s)) ?x587 (* (- 216) (* r00 s00 x)) (* 36 (* r00 r00 s s)) ?x1096 (* (- 108) (* x s)) ?x1154 ?x482 (* (- 108) (* r00 x)) ?x137 ?x813 ?x916 (* 54 (* r00 s)) (* (- 216) (* x00 x)) ?x1071)))
 (let (($x1084 (= ?x1078 0)))
 (let ((?x143 (* 9 s)))
 (let ((?x938 (* (- 9) s00)))
 (let ((?x867 (* (- 15) ?x542)))
 (let ((?x828 (* r00 r00 x00)))
 (let ((?x841 (* (- 36) ?x828)))
 (let ((?x757 (* 6 ?x756)))
 (let ((?x496 (* s s)))
 (let ((?x520 (* 3 ?x496)))
 (let ((?x502 (* (- 54) ?x473)))
 (let ((?x1013 (+ (* (- 24) (* s r)) ?x502 (* 36 (* r00 x r)) (* 24 (* r00 s00)) ?x520 (* 54 (* x r)) (* (- 6) (* s00 x)) (* 4 (* r00 s s)) (* (- 2) (* r00 s00 s00)) (* (- 6) (* x00 s)) (* 12 (* s00 s)) (* (- 2) (* r00 s00 s)) ?x757 (* 2 (* s s r)) (* 6 (* x s)) (* (- 4) (* s00 s00 r)) (* (- 36) ?x434) ?x841 ?x867 (* 2 (* s00 s r)) (* (- 36) (* r00 x00 r)) (* 54 (* r00 x)) ?x938 (* 36 ?x1571) (* (- 54) (* x00 r)) ?x143 (* 24 (* s00 r)) (* (- 24) (* r00 s)) (* 36 (* r00 r00 x)))))
 (let ((?x47 (* 3 s)))
 (let ((?x329 (* (- 3) s00)))
 (let ((?x555 (* (- 4) ?x542)))
 (let ((?x497 (* 2 ?x496)))
 (let ((?x487 (* (- 18) ?x473)))
 (let ((?x557 (+ (* (- 9) (* s r)) ?x487 (* 9 (* r00 s00)) ?x497 (* 18 (* x r)) (* 6 (* r00 s r)) (* (- 6) ?x434) ?x555 (* 18 (* r00 x)) ?x329 (* 6 ?x1571) (* (- 18) (* x00 r)) ?x47 (* 9 (* s00 r)) (* 2 (* s00 s)) (* (- 9) (* r00 s)) (* (- 6) (* r00 s00 r)))))
 (let ((?x59 (* 6 x00)))
 (let ((?x48 (* 3 r00)))
 (let ((?x300 (* (- 3) r)))
 (let ((?x1509 (+ (* (- 2) (* s r)) (* 12 (* r00 r00 r)) ?x300 ?x329 ?x47 ?x48 (* (- 4) (* s00 r)) (* 6 (* r00 s00)) (* (- 6) x) ?x59 (* (- 12) (* r00 r00 r00)))))
 (let (($x503 (= (+ s00 ?x231 (* 3 (* r r)) ?x266) 0)))
 (let (($x491 (and $x503 (= ?x1509 0) (= ?x557 0) (= ?x1013 0) $x1084 $x929)))
 (let ((?x220 (- x s)))
 (let ((?x215 (+ r 1)))
 (let ((?x33 (* 3 r00 r00)))
 (let ((?x218 (- (+ (- s00 (+ s (* 6 r) 3)) (* 3 ?x215 ?x215)) ?x33)))
 (let (($x224 (= (* ?x218 (+ r 1 (* ?x215 ?x215) (* ?x215 ?x215 ?x215 ?x220 ?x220))) 0)))
 (let ((?x139 (* 36 r00 r00 s00)))
 (let ((?x123 (* 36 r00 r00 s)))
 (let ((?x157 (- (+ (* 216 r00 s00 x00) (* 108 r00 x00)) (* 54 r00 s00))))
 (let ((?x164 (- (- (+ ?x157 (* 15 s s)) (* 216 r00 r00 r00 s)) (* 36 r00 r00 s00 s00))))
 (let ((?x171 (- (+ (- ?x164 (* 4 s s s)) (* 108 x x)) (* 432 r00 r00 r00 x00))))
 (let ((?x176 (- (+ (- ?x171 (* 12 s s s00)) (* 108 s00 x)) (* 108 r00 s00 s00))))
 (let ((?x180 (+ ?x176 (* 216 r00 r00 r00 s00) (* 108 s x00) (* 432 r00 r00 r00 x))))
 (let ((?x188 (- (+ (- ?x180 (* 66 s s00)) (* 108 r00 s s00)) (* 108 s00 x00))))
 (let ((?x193 (+ (- ?x188 (* 216 r00 s00 x)) (* 36 r00 r00 s s) (* 16 s00 s00 s00))))
 (let ((?x200 (- (+ (- ?x193 (* 108 s x)) ?x123 (* 51 s00 s00)) (* 108 r00 x))))
 (let ((?x207 (- (+ (- (- (+ ?x200 ?x137) ?x139) ?x143) (* 54 r00 s)) (* 216 x x00))))
 (let ((?x105 (+ (- (* (- 24) r s) (* 54 r00 x00)) (* 36 r r00 x) (* 24 r00 s00) (* 3 s s) (* 54 r x))))
 (let ((?x112 (- (+ (- ?x105 (* 6 s00 x)) (* 4 r00 s s)) (* 2 r00 s00 s00))))
 (let ((?x117 (- (+ (- ?x112 (* 6 s x00)) (* 12 s s00)) (* 2 r00 s s00))))
 (let ((?x121 (+ ?x117 (* 6 s00 x00) (* 2 r s s) (* 6 s x))))
 (let ((?x129 (- (- (- ?x121 (* 4 r s00 s00)) ?x123) (* 36 r00 r00 x00))))
 (let ((?x134 (- (+ (- ?x129 (* 15 s00 s00)) (* 2 r s s00)) (* 36 r r00 x00))))
 (let ((?x142 (- (+ (- (+ ?x134 (* 54 r00 x)) ?x137) ?x139) (* 54 r x00))))
 (let ((?x149 (+ (- (+ ?x142 ?x143 (* 24 r s00)) (* 24 r00 s)) (* 36 r00 r00 x))))
 (let ((?x44 (* 3 s00)))
 (let ((?x74 (+ (- (* (- 9) r s) (* 18 r00 x00)) (* 9 r00 s00) (* 2 s s) (* 18 r x) (* 6 r r00 s))))
 (let ((?x80 (+ (- (- ?x74 (* 6 r00 r00 s)) (* 4 s00 s00)) (* 18 r00 x))))
 (let ((?x85 (- (+ (- ?x80 ?x44) (* 6 r00 r00 s00)) (* 18 r x00))))
 (let ((?x91 (- (+ ?x85 ?x47 (* 9 r s00) (* 2 s s00)) (* 9 r00 s))))
 (let ((?x56 (* 6 x)))
 (let ((?x43 (* 3 r)))
 (let ((?x46 (- (- (+ (* (- 2) r s) (* 12 r r00 r00)) ?x43) ?x44)))
 (let ((?x55 (+ (- (+ ?x46 ?x47 ?x48) (* 4 r s00)) (* 6 r00 s00))))
 (let (($x227 (and (= (- (+ (- s00 s) (* 3 r r)) ?x33) 0) (= (- (+ (- ?x55 ?x56) ?x59) (* 12 r00 r00 r00)) 0) (= (- ?x91 (* 6 r r00 s00)) 0) (= ?x149 0) (= (+ ?x207 (* 108 x00 x00)) 0) (or (not $x224)))))
 (rewrite (= $x227 $x491))))))))))))))))))))))))))))))))))))))))))))))))))))))))))))))))))))))))))))))))))))))))
 ))
 (let ((@x229 (asserted $x228)))
 (let ((@x749 (mp (mp @x229 (quant-intro (proof-bind ?x939) (= $x228 $x593)) $x593) (rewrite (= $x593 $x593)) $x593)))
 (let ((@x1580 (mp (mp @x749 (quant-intro (proof-bind ?x1507) (= $x593 $x1501)) $x1501) (quant-intro (proof-bind ?x630) (= $x1501 $x629)) $x629)))
 (let ((@x853 (mp (mp~ @x1580 (sk (~ $x629 $x957)) $x957) (rewrite (= $x957 $x1350)) $x1350)))
 (let ((@x1228 (and-elim @x853 $x1526)))
 (let ((@x1562 (unit-resolution ((_ th-lemma arith triangle-eq) (or (not $x1526) $x1478)) @x1228 $x1478)))
 (let (($x642 (>= ?x1522 0)))
 (let ((@x779 (unit-resolution ((_ th-lemma arith triangle-eq) (or (not $x1526) $x642)) @x1228 $x642)))
 (let (($x1547 (not (<= ?x561 0))))
 (let (($x1052 (>= ?x561 0)))
 (let ((@x1554 (unit-resolution ((_ th-lemma arith triangle-eq) (or $x562 $x1547 (not $x1052))) (and-elim @x853 $x1361) (or $x1547 (not $x1052)))))
 (let ((@x1555 (unit-resolution @x1554 (lemma ((_ th-lemma arith farkas 1 1 1) (hypothesis (not $x1052)) @x779 @x1562 false) $x1052) $x1547)))
 ((_ th-lemma arith farkas 1 1 1) @x1555 @x779 @x1562 false))))))))))))))))))))))))))))))))))))))))))))))))))))))))))))))))))))))))))))))))))))))))))))))))))))))))))))))))))))))

(:added-eqs                 5
 :arith-assert-diseq        1
 :arith-assert-lower        9
 :arith-assert-upper        8
 :arith-conflicts           2
 :arith-eq-adapter          6
 :arith-num-rows            6
 :arith-pseudo-nonlinear    2
 :arith-tableau-max-columns 99
 :arith-tableau-max-rows    6
 :conflicts                 2
 :decisions                 1
 :del-clause                17
 :max-memory                3.93
 :memory                    3.32
 :mk-bool-var               24
 :mk-clause                 19
 :num-allocs                1319714
 :num-checks                1
 :propagations              12
 :rlimit-count              7065
 :time                      0.01
 :total-time                0.02)
